p cnf 10 50
-5 -8 10 0
-8 -2 4 0
-6 -9 -4 0
4 5 -6 0
8 10 -1 0
-10 -3 -6 0
-9 1 8 0
-10 -4 -3 0
9 -4 5 0
8 2 6 0
-8 9 -6 0
4 -5 7 0
-9 -1 -8 0
10 -4 5 0
5 -1 -4 0
-1 -5 3 0
9 2 1 0
10 -7 4 0
1 -2 5 0
-5 -6 3 0
6 3 8 0
3 2 -9 0
4 -2 5 0
2 7 -8 0
-5 -3 1 0
3 10 9 0
2 -1 -7 0
4 -6 -7 0
-6 -10 -2 0
9 -5 4 0
9 -4 -10 0
7 3 -5 0
-7 -6 -2 0
-10 2 -5 0
-7 6 -3 0
-1 2 8 0
-10 4 9 0
1 6 -2 0
10 -9 4 0
3 -5 -10 0
-2 -8 -7 0
2 -4 -3 0
10 8 -9 0
5 7 -4 0
6 7 -10 0
-8 -7 -1 0
-9 -8 -10 0
3 7 -5 0
9 -3 -5 0
4 3 5 0
